(set-logic HORN)
(declare-fun inv ((_ BitVec 8) (_ BitVec 8) (_ BitVec 8) ) Bool)
(assert (forall ((x (_ BitVec 8)) (m (_ BitVec 8)) (n (_ BitVec 8))) 
       (=> ( and ( = x (_ bv0 8) ) ( = m (_ bv0 8) ) ( bvsgt n (_ bv0 8) ) ) (inv x m n))))
(assert (forall ((x (_ BitVec 8)) (m (_ BitVec 8)) (n (_ BitVec 8)) (x! (_ BitVec 8)) (m! (_ BitVec 8)) (n! (_ BitVec 8))) 
       (=> (and (inv x m n) ( or ( and ( bvsge x n ) ( = x! x ) ( = m! m ) ( = n! n ) ) ( and ( bvslt x n ) ( = x! ( bvadd x (_ bv1 8) ) ) ( = m! x ) ( = n! n ) ) ( and ( bvslt x n ) ( = x! ( bvadd x (_ bv1 8) ) ) ( = m! m ) ( = n! n ) ) )) (inv x! m! n!))))
(assert (forall ((x (_ BitVec 8)) (m (_ BitVec 8)) (n (_ BitVec 8))) 
       (=> (inv x m n) ( => ( bvsge x n ) ( or ( bvsle n (_ bv0 8) ) ( and ( bvsle (_ bv0 8) m ) ( bvslt m n ) ) ) ))))
(check-sat)
